\* Finding_Total_of_Clean_Path_SubProblem *\
Maximize
Chance_attacker_get_to_DA_node_from_given_starting_nodes:
 #_of_total_path_to_DA_214 + #_of_total_path_to_DA_269
 + #_of_total_path_to_DA_287 + #_of_total_path_to_DA_291
 + #_of_total_path_to_DA_298 + #_of_total_path_to_DA_327
 + #_of_total_path_to_DA_338 + #_of_total_path_to_DA_344
 + #_of_total_path_to_DA_346 + #_of_total_path_to_DA_349
 + #_of_total_path_to_DA_356 + #_of_total_path_to_DA_357
 + #_of_total_path_to_DA_385 + #_of_total_path_to_DA_398
 + #_of_total_path_to_DA_405 + #_of_total_path_to_DA_406
 + #_of_total_path_to_DA_412 + #_of_total_path_to_DA_413
 + #_of_total_path_to_DA_431 + #_of_total_path_to_DA_445
Subject To
_C1: #_of_total_path_to_DA_214 - #_of_total_path_to_DA_98 <= 0
_C10: #_of_total_path_to_DA_335 - #_of_total_path_to_DA_41 <= 0
_C11: #_of_total_path_to_DA_182 - #_of_total_path_to_DA_41 <= 0
_C12: #_of_total_path_to_DA_287 - #_of_total_path_to_DA_619 <= 0
_C13: - #_of_total_path_to_DA_259 - #_of_total_path_to_DA_395
 + #_of_total_path_to_DA_619 <= 0
_C14: #_of_total_path_to_DA_259 - #_of_total_path_to_DA_41 <= 0
_C15: #_of_total_path_to_DA_395 - #_of_total_path_to_DA_41 <= 0
_C16: #_of_total_path_to_DA_291 - #_of_total_path_to_DA_559 <= 0
_C17: - #_of_total_path_to_DA_267 + #_of_total_path_to_DA_559 <= 0
_C18: #_of_total_path_to_DA_267 - #_of_total_path_to_DA_41 <= 0
_C19: #_of_total_path_to_DA_298 - #_of_total_path_to_DA_559 <= 0
_C2: #_of_total_path_to_DA_98 - #_of_total_path_to_DA_99 <= 0
_C20: #_of_total_path_to_DA_327 - #_of_total_path_to_DA_641 <= 0
_C21: - #_of_total_path_to_DA_400 + #_of_total_path_to_DA_641 <= 0
_C22: #_of_total_path_to_DA_400 - #_of_total_path_to_DA_560 <= 0
_C23: - #_of_total_path_to_DA_283 + #_of_total_path_to_DA_560 <= 0
_C24: #_of_total_path_to_DA_283 - #_of_total_path_to_DA_41 <= 0
_C25: #_of_total_path_to_DA_338 - #_of_total_path_to_DA_99 <= 0
_C26: #_of_total_path_to_DA_344 - #_of_total_path_to_DA_98 <= 0
_C27: #_of_total_path_to_DA_346 - #_of_total_path_to_DA_97 <= 0
_C28: #_of_total_path_to_DA_97 - #_of_total_path_to_DA_99 <= 0
_C29: #_of_total_path_to_DA_349 - #_of_total_path_to_DA_96 <= 0
_C3: - #_of_total_path_to_DA_17 - #_of_total_path_to_DA_429
 + #_of_total_path_to_DA_99 <= 0
_C30: - #_of_total_path_to_DA_307 + #_of_total_path_to_DA_96 <= 0
_C31: #_of_total_path_to_DA_307 - #_of_total_path_to_DA_97 <= 0
_C32: #_of_total_path_to_DA_356 - #_of_total_path_to_DA_665 <= 0
_C33: #_of_total_path_to_DA_357 - #_of_total_path_to_DA_648 <= 0
_C34: - #_of_total_path_to_DA_451 + #_of_total_path_to_DA_648 <= 0
_C35: - #_of_total_path_to_DA_41 + #_of_total_path_to_DA_451 <= 0
_C36: #_of_total_path_to_DA_385 - #_of_total_path_to_DA_665 <= 0
_C37: #_of_total_path_to_DA_398 - #_of_total_path_to_DA_559 <= 0
_C38: #_of_total_path_to_DA_405 - #_of_total_path_to_DA_559 <= 0
_C39: #_of_total_path_to_DA_406 - #_of_total_path_to_DA_619 <= 0
_C4: #_of_total_path_to_DA_429 - #_of_total_path_to_DA_658 <= 0
_C40: #_of_total_path_to_DA_412 - #_of_total_path_to_DA_648 <= 0
_C41: - #_of_total_path_to_DA_102 + #_of_total_path_to_DA_413 <= 0
_C42: #_of_total_path_to_DA_102 - #_of_total_path_to_DA_99 <= 0
_C43: #_of_total_path_to_DA_431 - #_of_total_path_to_DA_559
 - #_of_total_path_to_DA_569 <= 0
_C44: - #_of_total_path_to_DA_451 + #_of_total_path_to_DA_569 <= 0
_C45: #_of_total_path_to_DA_445 - #_of_total_path_to_DA_665 <= 0
_C5: - #_of_total_path_to_DA_285 + #_of_total_path_to_DA_658 <= 0
_C6: #_of_total_path_to_DA_285 - #_of_total_path_to_DA_41 <= 0
_C7: #_of_total_path_to_DA_17 - #_of_total_path_to_DA_658 <= 0
_C8: #_of_total_path_to_DA_269 - #_of_total_path_to_DA_665 <= 0
_C9: - #_of_total_path_to_DA_182 - #_of_total_path_to_DA_335
 + #_of_total_path_to_DA_665 <= 0
Bounds
 0 <= #_of_total_path_to_DA_102
 0 <= #_of_total_path_to_DA_17
 0 <= #_of_total_path_to_DA_182
 0 <= #_of_total_path_to_DA_214
 0 <= #_of_total_path_to_DA_259
 0 <= #_of_total_path_to_DA_267
 0 <= #_of_total_path_to_DA_269
 0 <= #_of_total_path_to_DA_283
 0 <= #_of_total_path_to_DA_285
 0 <= #_of_total_path_to_DA_287
 0 <= #_of_total_path_to_DA_291
 0 <= #_of_total_path_to_DA_298
 0 <= #_of_total_path_to_DA_307
 0 <= #_of_total_path_to_DA_327
 0 <= #_of_total_path_to_DA_335
 0 <= #_of_total_path_to_DA_338
 0 <= #_of_total_path_to_DA_344
 0 <= #_of_total_path_to_DA_346
 0 <= #_of_total_path_to_DA_349
 0 <= #_of_total_path_to_DA_356
 0 <= #_of_total_path_to_DA_357
 0 <= #_of_total_path_to_DA_385
 0 <= #_of_total_path_to_DA_395
 0 <= #_of_total_path_to_DA_398
 0 <= #_of_total_path_to_DA_400
 0 <= #_of_total_path_to_DA_405
 0 <= #_of_total_path_to_DA_406
 #_of_total_path_to_DA_41 = 1
 0 <= #_of_total_path_to_DA_412
 0 <= #_of_total_path_to_DA_413
 0 <= #_of_total_path_to_DA_429
 0 <= #_of_total_path_to_DA_431
 0 <= #_of_total_path_to_DA_445
 0 <= #_of_total_path_to_DA_451
 0 <= #_of_total_path_to_DA_559
 0 <= #_of_total_path_to_DA_560
 0 <= #_of_total_path_to_DA_569
 0 <= #_of_total_path_to_DA_619
 0 <= #_of_total_path_to_DA_641
 0 <= #_of_total_path_to_DA_648
 0 <= #_of_total_path_to_DA_658
 0 <= #_of_total_path_to_DA_665
 0 <= #_of_total_path_to_DA_96
 0 <= #_of_total_path_to_DA_97
 0 <= #_of_total_path_to_DA_98
 0 <= #_of_total_path_to_DA_99
Generals
#_of_total_path_to_DA_102
#_of_total_path_to_DA_17
#_of_total_path_to_DA_182
#_of_total_path_to_DA_214
#_of_total_path_to_DA_259
#_of_total_path_to_DA_267
#_of_total_path_to_DA_269
#_of_total_path_to_DA_283
#_of_total_path_to_DA_285
#_of_total_path_to_DA_287
#_of_total_path_to_DA_291
#_of_total_path_to_DA_298
#_of_total_path_to_DA_307
#_of_total_path_to_DA_327
#_of_total_path_to_DA_335
#_of_total_path_to_DA_338
#_of_total_path_to_DA_344
#_of_total_path_to_DA_346
#_of_total_path_to_DA_349
#_of_total_path_to_DA_356
#_of_total_path_to_DA_357
#_of_total_path_to_DA_385
#_of_total_path_to_DA_395
#_of_total_path_to_DA_398
#_of_total_path_to_DA_400
#_of_total_path_to_DA_405
#_of_total_path_to_DA_406
#_of_total_path_to_DA_41
#_of_total_path_to_DA_412
#_of_total_path_to_DA_413
#_of_total_path_to_DA_429
#_of_total_path_to_DA_431
#_of_total_path_to_DA_445
#_of_total_path_to_DA_451
#_of_total_path_to_DA_559
#_of_total_path_to_DA_560
#_of_total_path_to_DA_569
#_of_total_path_to_DA_619
#_of_total_path_to_DA_641
#_of_total_path_to_DA_648
#_of_total_path_to_DA_658
#_of_total_path_to_DA_665
#_of_total_path_to_DA_96
#_of_total_path_to_DA_97
#_of_total_path_to_DA_98
#_of_total_path_to_DA_99
End
